100
100
3000 3000 3000 3000 3000 3000 3000 3000 3000 3000 3000 3000 3000 3000 3000 3000 3000 3000 3000 3000 3000 3000 3000 3000 3000 3000 3000 3000 3000 3000 3000 3000 3000 3000 3000 3000 3000 3000 3000 3000 3000 3000 3000 3000 3000 3000 3000 3000 3000 3000 3000 3000 3000 3000 3000 3000 3000 3000 3000 3000 3000 3000 3000 3000 3000 3000 3000 3000 3000 3000 3000 3000 3000 3000 3000 3000 3000 3000 3000 3000 3000 3000 3000 3000 3000 3000 3000 3000 3000 3000 3000 3000 3000 3000 3000 3000 3000 3000 3000 3000
0 1 1
0 4 4
0 18 0
0 23 3
0 36 4
0 44 2
0 73 4
0 82 0
0 95 4
0 98 4
1 16 0
1 38 3
1 43 1
1 49 0
1 60 4
1 62 0
1 63 2
1 73 1
1 85 4
1 90 0
2 4 0
2 12 3
2 16 1
2 22 3
2 28 2
2 34 0
2 35 4
2 43 0
2 67 4
2 87 2
3 13 2
3 18 1
3 23 3
3 73 4
3 76 4
3 85 1
3 90 1
3 93 3
3 95 1
3 98 2
4 14 2
4 15 3
4 19 2
4 34 2
4 37 1
4 45 1
4 51 4
4 55 4
4 59 3
4 66 1
5 5 4
5 7 2
5 11 1
5 17 1
5 22 3
5 33 2
5 51 2
5 66 3
5 68 2
5 98 3
6 0 2
6 10 0
6 14 2
6 35 1
6 40 1
6 88 3
6 89 4
6 93 0
6 97 1
6 98 1
7 10 4
7 29 0
7 34 0
7 35 2
7 50 4
7 54 0
7 73 3
7 74 0
7 76 2
7 96 0
8 20 4
8 22 1
8 42 4
8 43 3
8 58 3
8 60 0
8 75 0
8 93 4
8 95 2
8 99 0
9 0 1
9 20 1
9 22 1
9 51 1
9 52 3
9 56 2
9 57 4
9 61 3
9 69 4
9 78 2
10 13 3
10 22 2
10 23 2
10 44 2
10 45 3
10 61 3
10 64 2
10 84 4
10 86 2
10 97 2
11 6 3
11 18 4
11 24 0
11 33 4
11 45 0
11 53 3
11 59 2
11 63 4
11 73 0
11 89 3
12 2 4
12 5 3
12 23 4
12 39 0
12 44 0
12 50 3
12 61 4
12 64 3
12 69 3
12 71 2
13 6 1
13 12 0
13 20 2
13 34 2
13 51 3
13 64 2
13 70 4
13 92 3
13 93 2
13 95 3
14 27 3
14 29 4
14 39 3
14 43 1
14 48 0
14 51 1
14 53 4
14 57 4
14 58 0
14 72 3
15 2 2
15 4 2
15 7 0
15 10 1
15 31 0
15 46 3
15 55 2
15 60 0
15 68 1
15 91 4
16 3 0
16 6 4
16 11 4
16 12 3
16 15 0
16 21 2
16 26 0
16 68 3
16 78 3
16 99 4
17 3 4
17 8 3
17 14 3
17 30 4
17 31 4
17 50 4
17 59 2
17 68 1
17 71 0
17 79 2
18 28 0
18 29 1
18 49 2
18 52 4
18 55 1
18 56 1
18 57 0
18 79 1
18 96 1
18 98 2
19 3 0
19 4 4
19 5 3
19 8 3
19 9 0
19 44 0
19 68 3
19 72 0
19 74 1
19 91 2
20 8 1
20 14 3
20 26 4
20 27 0
20 34 0
20 39 1
20 47 3
20 57 4
20 65 1
20 84 1
21 11 4
21 15 3
21 24 3
21 29 4
21 42 2
21 43 3
21 54 4
21 56 1
21 77 3
21 98 2
22 5 4
22 12 4
22 13 4
22 18 0
22 44 1
22 79 2
22 81 2
22 83 0
22 85 3
22 87 2
23 1 4
23 2 0
23 12 0
23 28 0
23 57 0
23 60 1
23 68 0
23 86 2
23 88 1
23 95 2
24 13 2
24 15 1
24 19 1
24 33 4
24 40 2
24 63 3
24 68 0
24 84 2
24 88 3
24 95 0
25 19 3
25 29 2
25 32 4
25 38 2
25 49 0
25 63 4
25 68 2
25 76 1
25 81 2
25 94 2
26 28 1
26 30 0
26 36 4
26 39 3
26 40 0
26 49 0
26 76 3
26 80 0
26 84 0
26 92 2
27 1 4
27 16 1
27 28 1
27 42 2
27 44 3
27 62 4
27 63 2
27 67 1
27 76 3
27 91 2
28 38 4
28 43 4
28 49 1
28 52 3
28 53 2
28 61 4
28 71 2
28 78 2
28 82 1
28 97 1
29 1 4
29 34 3
29 41 3
29 47 2
29 50 3
29 51 0
29 61 3
29 73 2
29 87 3
29 93 3
30 13 3
30 25 0
30 28 3
30 38 4
30 44 3
30 51 0
30 55 0
30 60 2
30 73 0
30 99 4
31 36 4
31 46 1
31 49 4
31 62 2
31 69 3
31 78 1
31 79 0
31 83 3
31 89 0
31 98 3
32 2 4
32 10 3
32 21 4
32 46 0
32 47 4
32 54 0
32 57 2
32 60 2
32 86 3
32 99 4
33 14 3
33 19 2
33 30 4
33 31 2
33 49 4
33 54 0
33 58 2
33 59 0
33 64 1
33 65 1
34 0 1
34 22 4
34 28 4
34 34 2
34 43 4
34 45 4
34 47 3
34 71 1
34 74 0
34 90 0
35 22 1
35 29 2
35 35 2
35 37 3
35 39 2
35 45 3
35 55 1
35 62 3
35 74 1
35 80 2
36 17 4
36 20 1
36 23 0
36 45 2
36 48 3
36 57 1
36 62 1
36 63 1
36 85 0
36 91 3
37 4 1
37 8 0
37 25 1
37 34 2
37 41 4
37 43 3
37 54 1
37 58 1
37 85 0
37 95 3
38 13 4
38 34 3
38 38 2
38 44 3
38 46 2
38 49 4
38 80 2
38 85 1
38 87 2
38 93 1
39 13 2
39 19 0
39 27 0
39 28 1
39 29 4
39 41 2
39 42 3
39 61 4
39 62 0
39 77 4
40 15 3
40 21 3
40 30 2
40 36 4
40 43 4
40 71 1
40 79 1
40 81 4
40 87 3
40 90 2
41 10 1
41 23 2
41 28 4
41 36 4
41 37 1
41 42 1
41 47 2
41 53 2
41 55 2
41 98 4
42 6 0
42 17 3
42 30 3
42 39 2
42 46 1
42 47 2
42 50 3
42 59 2
42 67 2
42 92 3
43 17 0
43 46 0
43 49 0
43 52 2
43 56 1
43 57 0
43 59 2
43 89 1
43 93 3
43 97 1
44 2 4
44 3 4
44 15 3
44 26 4
44 29 0
44 30 3
44 38 2
44 42 1
44 50 0
44 82 4
45 3 2
45 10 4
45 26 4
45 31 3
45 33 4
45 39 0
45 60 4
45 87 2
45 91 4
45 92 2
46 5 2
46 23 2
46 31 1
46 36 2
46 45 1
46 54 4
46 72 0
46 78 1
46 80 4
46 85 3
47 7 3
47 16 3
47 17 3
47 18 4
47 27 4
47 44 0
47 49 2
47 50 0
47 76 1
47 81 0
48 8 3
48 14 4
48 39 2
48 45 2
48 48 0
48 52 3
48 55 1
48 70 1
48 92 0
48 99 2
49 7 0
49 19 4
49 35 3
49 36 1
49 57 4
49 61 2
49 65 0
49 69 2
49 71 1
49 79 2
50 8 3
50 32 3
50 33 3
50 58 0
50 59 4
50 65 4
50 78 2
50 80 1
50 86 3
50 94 4
51 21 4
51 28 0
51 30 3
51 38 3
51 61 3
51 70 2
51 71 4
51 73 0
51 84 1
51 86 1
52 4 2
52 20 3
52 31 1
52 40 2
52 44 4
52 51 1
52 59 0
52 77 1
52 79 2
52 98 1
53 7 4
53 18 2
53 24 1
53 45 0
53 46 3
53 58 2
53 60 1
53 64 4
53 72 0
53 80 4
54 4 0
54 18 3
54 39 3
54 40 0
54 54 1
54 74 1
54 93 2
54 95 3
54 98 4
54 99 4
55 1 4
55 18 2
55 21 4
55 23 3
55 41 0
55 43 3
55 47 2
55 48 3
55 86 1
55 90 0
56 6 0
56 17 4
56 27 2
56 30 3
56 48 0
56 54 1
56 80 1
56 81 0
56 94 2
56 97 0
57 3 1
57 20 1
57 34 1
57 39 2
57 40 4
57 63 1
57 65 3
57 70 4
57 86 2
57 93 1
58 3 1
58 6 0
58 7 4
58 16 0
58 22 0
58 25 1
58 61 2
58 80 4
58 87 0
58 89 1
59 0 2
59 3 0
59 8 3
59 18 0
59 32 4
59 35 0
59 40 3
59 47 4
59 61 0
59 63 4
60 7 2
60 17 1
60 31 4
60 32 0
60 33 1
60 41 3
60 55 3
60 59 1
60 60 0
60 63 4
61 21 1
61 41 4
61 46 1
61 51 2
61 63 4
61 77 4
61 90 4
61 92 2
61 94 1
61 95 3
62 3 3
62 33 1
62 47 2
62 49 2
62 59 2
62 63 4
62 73 0
62 78 1
62 88 0
62 98 3
63 17 3
63 32 2
63 44 2
63 48 3
63 54 1
63 58 4
63 65 4
63 74 3
63 79 2
63 82 2
64 8 1
64 43 0
64 46 0
64 57 0
64 62 0
64 67 2
64 68 4
64 79 3
64 86 4
64 87 1
65 4 0
65 9 3
65 12 1
65 46 2
65 58 3
65 59 2
65 61 4
65 65 2
65 70 3
65 74 3
66 4 2
66 7 2
66 24 1
66 42 0
66 47 0
66 55 0
66 56 3
66 58 1
66 65 2
66 91 4
67 1 4
67 15 3
67 62 4
67 66 4
67 69 2
67 72 3
67 79 0
67 85 4
67 86 1
67 90 1
68 15 1
68 21 3
68 47 0
68 52 1
68 58 4
68 81 4
68 91 3
68 92 1
68 93 0
68 99 2
69 9 1
69 14 4
69 17 3
69 25 2
69 48 0
69 72 2
69 74 2
69 83 0
69 89 1
69 91 2
70 1 2
70 47 1
70 54 1
70 66 1
70 67 0
70 69 3
70 75 0
70 83 0
70 89 1
70 99 3
71 6 0
71 12 3
71 16 1
71 19 4
71 22 0
71 33 3
71 36 3
71 37 0
71 38 1
71 73 4
72 3 3
72 22 3
72 31 3
72 35 2
72 39 4
72 54 4
72 57 3
72 68 0
72 71 1
72 95 1
73 10 0
73 16 3
73 19 2
73 28 1
73 29 3
73 39 1
73 64 3
73 70 4
73 82 4
73 92 3
74 4 2
74 7 3
74 10 1
74 32 4
74 48 4
74 53 4
74 54 0
74 56 3
74 58 3
74 83 2
75 9 2
75 38 1
75 45 4
75 63 0
75 69 3
75 75 4
75 78 3
75 81 1
75 85 1
75 98 3
76 12 4
76 16 4
76 22 1
76 33 1
76 42 3
76 43 3
76 75 3
76 80 4
76 84 2
76 89 1
77 12 0
77 19 4
77 29 3
77 34 1
77 49 0
77 50 2
77 66 4
77 67 0
77 70 1
77 86 1
78 17 3
78 23 2
78 36 2
78 38 4
78 41 1
78 47 1
78 51 3
78 54 0
78 55 0
78 93 4
79 30 4
79 42 2
79 43 4
79 47 0
79 51 1
79 55 4
79 57 3
79 64 2
79 86 2
79 96 1
80 0 2
80 23 2
80 27 4
80 32 3
80 57 2
80 64 3
80 69 3
80 87 2
80 92 3
80 95 4
81 6 0
81 14 4
81 33 2
81 63 1
81 66 0
81 67 1
81 69 2
81 72 3
81 89 3
81 91 1
82 4 1
82 5 0
82 16 3
82 33 3
82 41 0
82 42 3
82 48 3
82 56 4
82 60 0
82 97 1
83 24 3
83 25 2
83 28 1
83 33 4
83 43 3
83 68 3
83 74 3
83 77 1
83 81 1
83 84 1
84 30 1
84 36 4
84 40 0
84 42 0
84 48 1
84 53 2
84 71 1
84 74 2
84 76 0
84 79 1
85 0 4
85 5 1
85 15 2
85 32 3
85 38 4
85 44 4
85 59 4
85 86 1
85 88 3
85 98 1
86 9 3
86 33 3
86 37 3
86 38 0
86 44 1
86 48 2
86 58 2
86 69 3
86 87 4
86 97 4
87 8 3
87 15 1
87 24 2
87 47 2
87 64 3
87 69 0
87 74 3
87 81 1
87 90 1
87 97 2
88 6 0
88 8 3
88 28 1
88 35 3
88 57 1
88 64 4
88 68 1
88 75 2
88 92 1
88 95 0
89 3 2
89 4 3
89 10 0
89 25 3
89 26 0
89 32 0
89 65 1
89 72 4
89 76 4
89 84 3
90 7 1
90 13 3
90 21 1
90 26 4
90 31 3
90 42 0
90 47 0
90 86 1
90 91 0
90 97 4
91 22 3
91 24 4
91 28 1
91 41 1
91 43 0
91 51 1
91 55 2
91 63 0
91 70 0
91 95 3
92 3 0
92 13 0
92 22 0
92 37 2
92 39 2
92 40 4
92 67 1
92 88 2
92 96 2
92 97 3
93 2 0
93 14 3
93 20 0
93 21 1
93 26 2
93 69 2
93 72 3
93 81 3
93 87 0
93 90 3
94 12 1
94 15 1
94 16 0
94 20 0
94 21 0
94 48 3
94 61 2
94 78 0
94 84 3
94 98 1
95 6 0
95 18 3
95 20 0
95 28 4
95 30 4
95 31 4
95 35 2
95 37 3
95 64 4
95 74 2
96 10 1
96 16 1
96 38 4
96 41 4
96 55 2
96 57 1
96 65 4
96 66 1
96 80 1
96 84 2
97 0 2
97 2 1
97 3 4
97 14 2
97 28 3
97 32 4
97 42 4
97 46 1
97 59 2
97 92 2
98 3 0
98 6 4
98 25 3
98 40 3
98 46 3
98 58 2
98 61 2
98 70 0
98 77 2
98 91 0
99 14 3
99 20 2
99 32 0
99 54 0
99 58 0
99 75 3
99 84 4
99 94 0
99 97 2
99 99 0
